
Gurobi 9.5.1 (linux64, Python) logging started Tue Jun 21 16:40:43 2022

Set parameter LogFile to value "gurobi.log"

Gurobi 9.5.1 (linux64, Python) logging started Tue Jun 21 16:41:29 2022

Set parameter Username
Set parameter LogFile to value "gurobi.log"
Academic license - for non-commercial use only - expires 2023-06-16
